p cnf 825 793
-604 707 0
-707 604 0
-709 -710 0
-606 709 0
-607 710 0
-709 606 0
-710 607 0
-712 -713 0
-609 712 0
-610 713 0
-712 609 0
-713 610 0
-715 -716 0
-715 -717 0
-716 -717 0
-612 715 0
-613 716 0
-614 717 0
-715 612 0
-716 613 0
-717 614 0
-719 -720 0
-616 719 0
-617 720 0
-719 616 0
-720 617 0
-722 -723 0
-722 -724 0
-723 -724 0
-619 724 0
-620 723 0
-621 722 0
-622 722 0
-722 621 622 0
-723 620 0
-724 619 0
-726 732 733 734 735 736 0
-732 -733 0
-732 -734 0
-732 -735 0
-732 -736 0
-733 -734 0
-733 -735 0
-733 -736 0
-734 -735 0
-734 -736 0
-735 -736 0
-726 737 738 739 740 741 742 743 0
-737 -738 0
-737 -739 0
-737 -740 0
-737 -741 0
-737 -742 0
-737 -743 0
-738 -739 0
-738 -740 0
-738 -741 0
-738 -742 0
-738 -743 0
-739 -740 0
-739 -741 0
-739 -742 0
-739 -743 0
-740 -741 0
-740 -742 0
-740 -743 0
-741 -742 0
-741 -743 0
-742 -743 0
-726 744 745 746 747 748 749 750 751 0
-744 -745 0
-744 -746 0
-744 -747 0
-744 -748 0
-744 -749 0
-744 -750 0
-744 -751 0
-745 -746 0
-745 -747 0
-745 -748 0
-745 -749 0
-745 -750 0
-745 -751 0
-746 -747 0
-746 -748 0
-746 -749 0
-746 -750 0
-746 -751 0
-747 -748 0
-747 -749 0
-747 -750 0
-747 -751 0
-748 -749 0
-748 -750 0
-748 -751 0
-749 -750 0
-749 -751 0
-750 -751 0
-726 730 0
-726 731 0
-726 729 0
-726 -727 0
-735 -737 -729 667 0
-735 -742 -729 674 0
-735 -738 -729 652 0
-733 -741 -729 653 0
-735 -743 -729 655 0
-732 -738 -729 656 0
-734 -738 -729 670 0
-736 -741 -729 685 0
-734 -743 -729 657 0
-735 -740 -729 659 0
-734 -741 -729 678 0
-732 -741 -729 671 0
-736 -742 -729 661 0
-736 -738 -729 686 0
-732 -742 -729 687 0
-735 -739 -729 680 0
-733 -738 -729 681 0
-736 -737 -729 664 0
-736 -739 -729 682 0
-733 -743 -729 673 0
-736 -743 -729 666 0
-735 -741 -729 683 0
-732 -743 -729 690 0
-733 -739 -729 691 0
-732 -739 -729 692 0
-745 -730 668 0
-750 -730 660 0
-751 -730 675 0
-746 -730 654 0
-749 -730 679 0
-747 -730 663 0
-748 -730 672 0
-744 -730 689 0
-732 -731 555 0
-736 -731 532 0
-733 -731 533 0
-734 -731 548 0
-735 -731 563 0
-726 -734 -742 0
-726 -734 -737 0
-726 -734 -739 0
-726 -734 -740 0
-726 -733 -742 0
-726 -733 -737 0
-726 -733 -740 0
-726 -732 -737 0
-726 -732 -740 0
-726 -736 -740 0
-726 -734 -746 0
-726 -734 -749 0
-726 -734 -747 0
-726 -734 -744 0
-726 -734 -750 0
-726 -733 -749 0
-726 -733 -747 0
-726 -733 -744 0
-726 -733 -750 0
-726 -735 -750 0
-726 -732 -747 0
-726 -732 -744 0
-726 -732 -750 0
-726 -736 -747 0
-726 -736 -750 0
-650 726 0
-649 727 0
-726 650 0
-727 649 0
-752 756 0
-754 756 0
-753 -756 0
-755 -756 0
-532 757 -726 736 0
-532 757 726 0
532 -757 -726 740 0
532 -757 726 0
-533 758 -726 733 0
-533 758 726 0
533 -758 -726 742 0
533 -758 726 0
-652 759 -726 -735 738 0
-652 759 -726 735 0
-652 759 726 0
652 -759 -726 -735 745 0
652 -759 -726 735 0
652 -759 726 0
-653 760 -726 -733 741 0
-653 760 -726 733 0
-653 760 726 0
653 -760 -726 -733 748 0
653 -760 -726 733 0
653 -760 726 0
-654 761 -726 746 0
-654 761 726 0
654 -761 -726 734 0
654 -761 726 0
-655 762 -726 -735 743 0
-655 762 -726 735 0
-655 762 726 0
655 -762 -726 -735 751 0
655 -762 -726 735 0
655 -762 726 0
-656 763 -726 -732 738 0
-656 763 -726 732 0
-656 763 726 0
656 -763 -726 -732 745 0
656 -763 -726 732 0
656 -763 726 0
-538 764 0
538 -764 -726 743 0
538 -764 726 0
-657 765 -726 -734 743 0
-657 765 -726 734 0
-657 765 726 0
657 -765 -726 -734 751 0
657 -765 -726 734 0
657 -765 726 0
-659 766 -726 -735 740 0
-659 766 -726 735 0
-659 766 726 0
659 -766 -726 -735 747 0
659 -766 -726 735 0
659 -766 726 0
-660 767 -726 750 0
-660 767 726 0
660 -767 -726 735 0
660 -767 726 0
-661 768 -726 -736 742 0
-661 768 -726 736 0
-661 768 726 0
661 -768 -726 -736 749 0
661 -768 -726 736 0
661 -768 726 0
-663 769 -726 747 0
-663 769 726 0
663 -769 -726 736 0
663 -769 726 0
-664 770 -726 -736 737 0
-664 770 -726 736 0
-664 770 726 0
664 -770 -726 -736 744 0
664 -770 -726 736 0
664 -770 726 0
-666 771 -726 -736 743 0
-666 771 -726 736 0
-666 771 726 0
666 -771 -726 -736 751 0
666 -771 -726 736 0
666 -771 726 0
-667 772 -726 -735 737 0
-667 772 -726 735 0
-667 772 726 0
667 -772 -726 -735 744 0
667 -772 -726 735 0
667 -772 726 0
-668 773 -726 745 0
-668 773 726 0
668 -773 0
-548 774 -726 734 0
-548 774 726 0
548 -774 -726 739 0
548 -774 726 0
-670 775 -726 -734 738 0
-670 775 -726 734 0
-670 775 726 0
670 -775 -726 -734 745 0
670 -775 -726 734 0
670 -775 726 0
-671 776 -726 -732 741 0
-671 776 -726 732 0
-671 776 726 0
671 -776 -726 -732 748 0
671 -776 -726 732 0
671 -776 726 0
-552 777 0
552 -777 -726 738 0
552 -777 726 0
-672 778 -726 748 0
-672 778 726 0
672 -778 0
-673 779 -726 -733 743 0
-673 779 -726 733 0
-673 779 726 0
673 -779 -726 -733 751 0
673 -779 -726 733 0
673 -779 726 0
-674 780 -726 -735 742 0
-674 780 -726 735 0
-674 780 726 0
674 -780 -726 -735 749 0
674 -780 -726 735 0
674 -780 726 0
-675 781 -726 751 0
-675 781 726 0
675 -781 0
-555 782 -726 732 0
-555 782 726 0
555 -782 -726 737 0
555 -782 726 0
-557 783 0
557 -783 -726 741 0
557 -783 726 0
-678 784 -726 -734 741 0
-678 784 -726 734 0
-678 784 726 0
678 -784 -726 -734 748 0
678 -784 -726 734 0
678 -784 726 0
-679 785 -726 749 0
-679 785 726 0
679 -785 -726 733 0
679 -785 726 0
-680 786 -726 -735 739 0
-680 786 -726 735 0
-680 786 726 0
680 -786 -726 -735 746 0
680 -786 -726 735 0
680 -786 726 0
-681 787 -726 -733 738 0
-681 787 -726 733 0
-681 787 726 0
681 -787 -726 -733 745 0
681 -787 -726 733 0
681 -787 726 0
-682 788 -726 -736 739 0
-682 788 -726 736 0
-682 788 726 0
682 -788 -726 -736 746 0
682 -788 -726 736 0
682 -788 726 0
-563 789 -726 735 0
-563 789 726 0
563 -789 0
-683 790 -726 -735 741 0
-683 790 -726 735 0
-683 790 726 0
683 -790 -726 -735 748 0
683 -790 -726 735 0
683 -790 726 0
-685 791 -726 -736 741 0
-685 791 -726 736 0
-685 791 726 0
685 -791 -726 -736 748 0
685 -791 -726 736 0
685 -791 726 0
-686 792 -726 -736 738 0
-686 792 -726 736 0
-686 792 726 0
686 -792 -726 -736 745 0
686 -792 -726 736 0
686 -792 726 0
-687 793 -726 -732 742 0
-687 793 -726 732 0
-687 793 726 0
687 -793 -726 -732 749 0
687 -793 -726 732 0
687 -793 726 0
-689 794 -726 744 0
-689 794 726 0
689 -794 -726 732 0
689 -794 726 0
-690 795 -726 -732 743 0
-690 795 -726 732 0
-690 795 726 0
690 -795 -726 -732 751 0
690 -795 -726 732 0
690 -795 726 0
-691 796 -726 -733 739 0
-691 796 -726 733 0
-691 796 726 0
691 -796 -726 -733 746 0
691 -796 -726 733 0
691 -796 726 0
-692 797 -726 -732 739 0
-692 797 -726 732 0
-692 797 726 0
692 -797 -726 -732 746 0
692 -797 -726 732 0
692 -797 726 0
-753 808 809 810 811 812 0
-808 -809 0
-808 -810 0
-808 -811 0
-808 -812 0
-809 -810 0
-809 -811 0
-809 -812 0
-810 -811 0
-810 -812 0
-811 -812 0
-753 813 814 815 816 817 818 819 820 0
-813 -814 0
-813 -815 0
-813 -816 0
-813 -817 0
-813 -818 0
-813 -819 0
-813 -820 0
-814 -815 0
-814 -816 0
-814 -817 0
-814 -818 0
-814 -819 0
-814 -820 0
-815 -816 0
-815 -817 0
-815 -818 0
-815 -819 0
-815 -820 0
-816 -817 0
-816 -818 0
-816 -819 0
-816 -820 0
-817 -818 0
-817 -819 0
-817 -820 0
-818 -819 0
-818 -820 0
-819 -820 0
-753 805 0
-753 803 0
-754 764 0
-754 669 0
-755 813 814 815 816 817 818 819 820 0
-813 -814 0
-813 -815 0
-813 -816 0
-813 -817 0
-813 -818 0
-813 -819 0
-813 -820 0
-814 -815 0
-814 -816 0
-814 -817 0
-814 -818 0
-814 -819 0
-814 -820 0
-815 -816 0
-815 -817 0
-815 -818 0
-815 -819 0
-815 -820 0
-816 -817 0
-816 -818 0
-816 -819 0
-816 -820 0
-817 -818 0
-817 -819 0
-817 -820 0
-818 -819 0
-818 -820 0
-819 -820 0
-755 808 809 810 811 812 0
-808 -809 0
-808 -810 0
-808 -811 0
-808 -812 0
-809 -810 0
-809 -811 0
-809 -812 0
-810 -811 0
-810 -812 0
-811 -812 0
-755 807 0
-755 800 0
-752 -753 0
-752 -754 0
-752 -755 0
-753 -754 0
-753 -755 0
-754 -755 0
-741 -798 783 0
-740 -798 757 0
-742 -798 758 0
-738 -798 777 0
-737 -798 782 0
-739 -798 774 0
-743 -798 764 0
-745 799 -773 0
-750 799 -767 0
-751 799 -781 0
-746 799 -761 0
-749 799 -785 0
-747 799 -769 0
-748 799 -778 0
-744 799 -794 0
-808 -800 677 0
-811 -800 665 0
-809 -800 662 0
-812 -800 684 0
-810 -800 676 0
-732 -801 794 0
-735 -801 767 0
-734 -801 761 0
-733 -801 785 0
-736 -801 769 0
-732 802 -782 0
-736 802 -757 0
-733 802 -758 0
-734 802 -774 0
-735 802 -789 0
-808 -803 782 0
-812 -803 757 0
-809 -803 758 0
-810 -803 774 0
-811 -803 789 0
-735 -744 -804 772 0
-735 -749 -804 780 0
-735 -745 -804 759 0
-733 -748 -804 760 0
-735 -751 -804 762 0
-732 -745 -804 763 0
-734 -745 -804 775 0
-736 -748 -804 791 0
-734 -751 -804 765 0
-735 -747 -804 766 0
-734 -748 -804 784 0
-732 -748 -804 776 0
-736 -749 -804 768 0
-736 -745 -804 792 0
-732 -749 -804 793 0
-735 -746 -804 786 0
-733 -745 -804 787 0
-736 -744 -804 770 0
-736 -746 -804 788 0
-733 -751 -804 779 0
-736 -751 -804 771 0
-735 -748 -804 790 0
-732 -751 -804 795 0
-733 -746 -804 796 0
-732 -746 -804 797 0
-813 -805 677 0
-818 -805 662 0
-814 -805 688 0
-819 -805 665 0
-817 -805 669 0
-816 -805 684 0
-815 -805 676 0
-820 -805 658 0
-735 -737 806 -772 0
-735 -742 806 -780 0
-735 -738 806 -759 0
-733 -741 806 -760 0
-735 -743 806 -762 0
-732 -738 806 -763 0
-734 -738 806 -775 0
-736 -741 806 -791 0
-734 -743 806 -765 0
-735 -740 806 -766 0
-734 -741 806 -784 0
-732 -741 806 -776 0
-736 -742 806 -768 0
-736 -738 806 -792 0
-732 -742 806 -793 0
-735 -739 806 -786 0
-733 -738 806 -787 0
-736 -737 806 -770 0
-736 -739 806 -788 0
-733 -743 806 -779 0
-736 -743 806 -771 0
-735 -741 806 -790 0
-732 -743 806 -795 0
-733 -739 806 -796 0
-732 -739 806 -797 0
-817 -807 783 0
-816 -807 757 0
-818 -807 758 0
-814 -807 777 0
-813 -807 782 0
-815 -807 774 0
-819 -807 789 0
-820 -807 764 0
-821 732 -737 0
-821 -732 737 0
-821 733 -742 0
-821 -733 742 0
-821 734 -739 0
-821 -734 739 0
-821 736 -740 0
-821 -736 740 0
-732 -737 821 0
-733 -742 821 0
-734 -739 821 0
-736 -740 821 0
-735 -821 0
-741 -821 0
-738 -821 0
-743 -821 0
-726 -802 821 0
-822 744 -732 0
-822 -744 732 0
-822 749 -733 0
-822 -749 733 0
-822 746 -734 0
-822 -746 734 0
-822 750 -735 0
-822 -750 735 0
-822 747 -736 0
-822 -747 736 0
-744 -732 822 0
-749 -733 822 0
-746 -734 822 0
-750 -735 822 0
-747 -736 822 0
-748 -822 0
-745 -822 0
-751 -822 0
-823 744 -737 0
-823 -744 737 0
-823 745 -738 0
-823 -745 738 0
-823 746 -739 0
-823 -746 739 0
-823 747 -740 0
-823 -747 740 0
-823 748 -741 0
-823 -748 741 0
-823 749 -742 0
-823 -749 742 0
-823 751 -743 0
-823 -751 743 0
-744 -737 823 0
-745 -738 823 0
-746 -739 823 0
-747 -740 823 0
-748 -741 823 0
-749 -742 823 0
-751 -743 823 0
-750 -823 0
-726 -799 822 0
-726 801 0
-726 798 0
-726 804 0
-824 737 -744 0
-824 -737 744 0
-824 738 -745 0
-824 -738 745 0
-824 739 -746 0
-824 -739 746 0
-824 740 -747 0
-824 -740 747 0
-824 741 -748 0
-824 -741 748 0
-824 742 -749 0
-824 -742 749 0
-824 743 -751 0
-824 -743 751 0
-737 -744 824 0
-738 -745 824 0
-739 -746 824 0
-740 -747 824 0
-741 -748 824 0
-742 -749 824 0
-743 -751 824 0
-750 -824 0
-726 -806 824 0
-753 -809 -818 0
-753 -809 -816 0
-753 -809 -813 0
-753 -809 -819 0
-753 -810 -818 0
-753 -810 -815 0
-753 -810 -816 0
-753 -810 -813 0
-753 -810 -819 0
-753 -808 -816 0
-753 -808 -813 0
-753 -808 -819 0
-753 -811 -819 0
-753 -812 -816 0
-753 -812 -819 0
-755 -809 -818 0
-755 -809 -816 0
-755 -809 -813 0
-755 -809 -819 0
-755 -810 -818 0
-755 -810 -815 0
-755 -810 -816 0
-755 -810 -813 0
-755 -810 -819 0
-755 -808 -816 0
-755 -808 -813 0
-755 -808 -819 0
-755 -811 -819 0
-755 -812 -816 0
-755 -812 -819 0
-650 753 754 755 0
-649 752 0
-753 650 0
-754 650 0
-755 650 0
-752 649 0
-757 151 -756 0
757 -151 -756 0
-758 152 -756 0
758 -152 -756 0
-759 154 -756 0
759 -154 -756 0
-760 155 -756 0
760 -155 -756 0
-761 385 -756 0
761 -385 -756 0
-762 156 -756 0
762 -156 -756 0
-763 158 -756 0
763 -158 -756 0
-764 159 -756 0
764 -159 -756 0
-765 160 -756 0
765 -160 -756 0
-658 602 -756 0
658 -602 -756 0
-766 10 -756 0
766 -10 -756 0
-767 162 -756 0
767 -162 -756 0
-768 163 -756 0
768 -163 -756 0
-662 270 -756 0
662 -270 -756 0
-769 386 -756 0
769 -386 -756 0
-770 11 -756 0
770 -11 -756 0
-665 271 -756 0
665 -271 -756 0
-771 167 -756 0
771 -167 -756 0
-772 170 -756 0
772 -170 -756 0
-773 171 -756 0
773 -171 -756 0
-774 172 -756 0
774 -172 -756 0
-669 273 -756 0
669 -273 -756 0
-775 12 -756 0
775 -12 -756 0
-776 174 -756 0
776 -174 -756 0
-777 274 -756 0
777 -274 -756 0
-778 387 -756 0
778 -387 -756 0
-779 176 -756 0
779 -176 -756 0
-780 153 -756 0
780 -153 -756 0
-781 388 -756 0
781 -388 -756 0
-782 157 -756 0
782 -157 -756 0
-676 267 -756 0
676 -267 -756 0
-783 268 -756 0
783 -268 -756 0
-677 269 -756 0
677 -269 -756 0
-784 161 -756 0
784 -161 -756 0
-785 389 -756 0
785 -389 -756 0
-786 164 -756 0
786 -164 -756 0
-787 165 -756 0
787 -165 -756 0
-788 166 -756 0
788 -166 -756 0
-789 168 -756 0
789 -168 -756 0
-790 169 -756 0
790 -169 -756 0
-684 272 -756 0
684 -272 -756 0
-791 173 -756 0
791 -173 -756 0
-792 175 -756 0
792 -175 -756 0
-793 13 -756 0
793 -13 -756 0
-688 603 -756 0
688 -603 -756 0
-794 390 -756 0
794 -390 -756 0
-795 177 -756 0
795 -177 -756 0
-796 14 -756 0
796 -14 -756 0
-797 178 -756 0
797 -178 -756 0
-705 825 0
-825 705 0
a 756 0
